NAME : prob5c
TYPE : PDTSP
DIMENSION : 11
EDGE_WEIGHT_TYPE : EUC_2D
NODE_COORD_SECTION
1 864 783
2 267 312
3 434 542
4 234 178
5 609 504
6 13 162
7 672 933
8 907 64
9 498 64
10 255 988
11 413 955
PICKUP_AND_DELIVERY_SECTION
1 0 0 0 0 0 0
2 0 0 0 0 7 0
3 0 0 0 0 8 0
4 0 0 0 0 9 0
5 0 0 0 0 10 0
6 0 0 0 0 11 0
7 0 0 0 0 0 2
8 0 0 0 0 0 3
9 0 0 0 0 0 4
10 0 0 0 0 0 5
11 0 0 0 0 0 6
DEPOT_SECTION
1 
-1
EOF
